Normalized Data/p02_3070_tsplib0_normalized_splitx10_0.vrp
NAME:p02_3070_tsplib0_NORMALIZED_splitx10_
BEST_KNOWN: 0
COMMENT: 0
DIMENSION: 369
CAPACITY: 1000
EDGE_WEIGHT_FORMAT: FUNCTION
EDGE_WEIGHT_TYPE: EXACT_2D
NODE_COORD_SECTION
1 0.00000 0.00000
2 -18 -18
3 -18 -18
4 -18 -18
5 -18 -18
6 -18 -18
7 -18 -18
8 -4 -14
9 -4 -14
10 -4 -14
11 -19 5
12 -19 5
13 -19 5
14 -19 5
15 -19 5
16 -19 5
17 5 -5
18 5 -5
19 5 -5
20 5 -5
21 5 -5
22 15 -20
23 15 -20
24 15 -20
25 15 -20
26 -7 -6
27 -7 -6
28 -7 -6
29 -7 -6
30 -7 -6
31 -7 -6
32 -7 -6
33 10 10
34 10 10
35 10 10
36 10 10
37 10 10
38 10 10
39 10 10
40 15 5
41 15 5
42 15 5
43 15 5
44 15 5
45 15 5
46 -14 19
47 -14 19
48 -14 19
49 -14 19
50 -14 19
51 0 26
52 0 26
53 15 25
54 15 25
55 15 25
56 15 25
57 15 25
58 -5 11
59 -5 11
60 -5 11
61 22 -5
62 22 -5
63 22 -5
64 22 -5
65 22 -5
66 22 -5
67 22 17
68 22 17
69 22 17
70 22 -16
71 22 -16
72 22 -16
73 22 -16
74 22 -16
75 22 -16
76 -19 -4
77 -19 -4
78 -19 -4
79 -7 4
80 -7 4
81 -7 4
82 -7 4
83 -31 16
84 -31 16
85 -31 16
86 22 8
87 22 8
88 22 8
89 22 8
90 22 8
91 22 8
92 26 -26
93 26 -26
94 26 -26
95 26 -26
96 4 -27
97 4 -27
98 4 -27
99 4 -27
100 4 -27
101 -14 -27
102 -14 -27
103 -14 -27
104 -14 -27
105 -29 -12
106 -29 -12
107 -29 -12
108 -29 -12
109 -33 3
110 -33 3
111 -33 3
112 -33 3
113 -33 3
114 -23 24
115 -23 24
116 -23 24
117 -23 24
118 1 6
119 1 6
120 1 6
121 1 6
122 1 6
123 1 6
124 1 6
125 1 6
126 15 -6
127 15 -6
128 -5 -24
129 -5 -24
130 -5 -24
131 12 -14
132 12 -14
133 12 -14
134 3 -14
135 3 -14
136 3 -14
137 3 -14
138 3 -14
139 -9 36
140 -9 36
141 -9 36
142 -9 36
143 -9 36
144 -9 36
145 -18 13
146 -18 13
147 -18 13
148 -18 13
149 -14 -11
150 -14 -11
151 -14 -11
152 -14 -11
153 -14 -11
154 10 0
155 10 0
156 10 0
157 10 0
158 10 0
159 10 0
160 15 10
161 15 10
162 15 10
163 15 10
164 15 10
165 15 10
166 14 -30
167 14 -30
168 14 -30
169 14 -30
170 14 -30
171 14 -30
172 20 -25
173 20 -25
174 20 -25
175 7 26
176 7 26
177 7 26
178 7 26
179 7 26
180 7 26
181 7 26
182 -10 20
183 -10 20
184 -10 20
185 -10 20
186 -10 20
187 -10 20
188 -10 20
189 -10 10
190 -10 10
191 -10 10
192 -10 10
193 -10 10
194 -28 -23
195 -28 -23
196 -28 -23
197 -28 -23
198 -28 -23
199 -25 -26
200 -25 -26
201 -25 -26
202 -25 -26
203 -24 -21
204 -24 -21
205 -24 -21
206 -24 -21
207 -19 8
208 -19 8
209 -19 8
210 -19 8
211 -19 8
212 10 -10
213 10 -10
214 10 -10
215 10 -10
216 11 2
217 11 2
218 10 -25
219 10 -25
220 10 -25
221 10 -25
222 10 -25
223 10 -25
224 10 -25
225 8 -19
226 8 -19
227 8 -19
228 8 -19
229 8 -19
230 -28 -2
231 -28 -2
232 -28 -2
233 -28 -2
234 -28 -2
235 -28 -2
236 -25 16
237 -25 16
238 -25 16
239 -25 16
240 -25 16
241 -25 16
242 -25 16
243 -11 -1
244 -11 -1
245 -11 -1
246 -11 -1
247 -11 -1
248 14 -2
249 14 -2
250 14 -2
251 14 -2
252 15 17
253 15 17
254 15 17
255 15 17
256 27 1
257 27 1
258 27 1
259 27 1
260 27 1
261 -30 30
262 -30 30
263 -30 30
264 -30 30
265 -30 30
266 -30 30
267 -30 30
268 -30 30
269 -34 -15
270 -34 -15
271 -34 -15
272 -34 -15
273 -34 -15
274 -34 -15
275 -34 -15
276 25 -13
277 25 -13
278 25 -13
279 25 -13
280 0 20
281 0 20
282 0 20
283 0 20
284 0 20
285 0 20
286 30 24
287 30 24
288 30 24
289 24 -36
290 24 -36
291 24 -36
292 24 -36
293 -4 -34
294 -4 -34
295 -4 -34
296 -4 -34
297 -10 -20
298 -10 -20
299 -20 -10
300 -20 -10
301 -20 -10
302 -20 -10
303 -25 -35
304 -25 -35
305 -25 -35
306 10 30
307 10 30
308 10 30
309 10 30
310 10 30
311 17 32
312 17 32
313 17 32
314 17 32
315 17 32
316 17 32
317 5 2
318 5 2
319 5 2
320 5 2
321 5 2
322 5 2
323 -2 -7
324 -2 -7
325 -2 -7
326 -2 -7
327 -2 -7
328 10 -36
329 10 -36
330 10 -36
331 10 -36
332 10 -36
333 10 -36
334 10 -36
335 10 -36
336 26 -32
337 26 -32
338 26 -32
339 26 -32
340 26 -32
341 26 -32
342 26 -32
343 19 -35
344 19 -35
345 19 -35
346 19 -35
347 19 -35
348 19 -35
349 -5 20
350 -5 20
351 -5 20
352 -5 20
353 -13 -16
354 -13 -16
355 -13 -16
356 -13 -16
357 -13 -16
358 -13 -16
359 0 -20
360 0 -20
361 0 -20
362 0 -20
363 0 -20
364 0 -20
365 0 -20
366 0 -20
367 0 -3
368 0 -3
369 0 -3
DEMAND_SECTION
1 0
2 200
3 200
4 200
5 10
6 10
7 10
8 200
9 200
10 50
11 200
12 100
13 50
14 10
15 10
16 10
17 200
18 200
19 100
20 10
21 10
22 200
23 200
24 200
25 50
26 200
27 200
28 200
29 10
30 10
31 10
32 10
33 200
34 200
35 50
36 10
37 10
38 10
39 10
40 200
41 100
42 10
43 10
44 10
45 10
46 200
47 100
48 50
49 10
50 10
51 200
52 100
53 200
54 200
55 200
56 10
57 10
58 200
59 200
60 50
61 200
62 200
63 50
64 10
65 10
66 10
67 200
68 200
69 100
70 200
71 200
72 100
73 50
74 10
75 10
76 200
77 200
78 10
79 200
80 100
81 10
82 10
83 200
84 200
85 100
86 200
87 200
88 200
89 10
90 10
91 10
92 200
93 200
94 100
95 10
96 200
97 100
98 10
99 10
100 10
101 200
102 200
103 100
104 50
105 200
106 200
107 100
108 50
109 200
110 200
111 100
112 10
113 10
114 200
115 200
116 200
117 10
118 200
119 200
120 100
121 50
122 10
123 10
124 10
125 10
126 200
127 100
128 200
129 200
130 200
131 200
132 100
133 50
134 200
135 100
136 10
137 10
138 10
139 200
140 200
141 200
142 10
143 10
144 10
145 200
146 200
147 200
148 10
149 200
150 200
151 200
152 10
153 10
154 200
155 100
156 50
157 10
158 10
159 10
160 200
161 200
162 200
163 10
164 10
165 10
166 200
167 200
168 50
169 10
170 10
171 10
172 200
173 200
174 200
175 200
176 200
177 50
178 10
179 10
180 10
181 10
182 200
183 200
184 50
185 10
186 10
187 10
188 10
189 200
190 200
191 200
192 10
193 10
194 200
195 100
196 50
197 10
198 10
199 200
200 100
201 10
202 10
203 200
204 200
205 100
206 50
207 200
208 200
209 100
210 50
211 10
212 200
213 200
214 200
215 50
216 200
217 200
218 200
219 200
220 50
221 10
222 10
223 10
224 10
225 200
226 200
227 50
228 10
229 10
230 200
231 200
232 200
233 10
234 10
235 10
236 200
237 200
238 100
239 10
240 10
241 10
242 10
243 200
244 200
245 100
246 50
247 10
248 200
249 200
250 100
251 50
252 200
253 100
254 10
255 10
256 200
257 200
258 200
259 50
260 10
261 200
262 200
263 100
264 50
265 10
266 10
267 10
268 10
269 200
270 200
271 100
272 50
273 10
274 10
275 10
276 200
277 200
278 10
279 10
280 200
281 200
282 100
283 50
284 10
285 10
286 200
287 200
288 50
289 200
290 200
291 10
292 10
293 200
294 200
295 200
296 50
297 200
298 200
299 200
300 200
301 10
302 10
303 200
304 200
305 10
306 200
307 200
308 10
309 10
310 10
311 200
312 200
313 50
314 10
315 10
316 10
317 200
318 200
319 200
320 10
321 10
322 10
323 200
324 100
325 10
326 10
327 10
328 200
329 200
330 200
331 50
332 10
333 10
334 10
335 10
336 200
337 200
338 200
339 10
340 10
341 10
342 10
343 200
344 200
345 200
346 50
347 10
348 10
349 200
350 200
351 200
352 50
353 200
354 200
355 200
356 10
357 10
358 10
359 200
360 200
361 200
362 50
363 10
364 10
365 10
366 10
367 200
368 100
369 10
DEPOT_SECTION
1
-1
EOF