Normalized Data/p02_3070_tsplib0_normalized_splitx10_0.sol
368 -1 5 4 2 202 203 205 204 -6 3 201 199 198 200 302 303 304 357 356 355 -7 8 129 127 128 -9 102 100 101 103 296 297 -15 14 10 11 13 12 209 208 210 206 207 -17 20 16 18 19 316 317 321 319 -23 21 173 172 171 -24 22 336 337 338 335 339 341 340 -26 150 354 352 353 -29 30 31 28 27 25 244 243 242 246 245 -32 33 160 159 161 -34 36 38 253 252 254 251 56 53 52 54 -35 37 286 287 285 68 66 67 163 164 162 -44 39 43 40 42 41 87 86 90 85 89 88 -48 49 45 46 47 186 181 182 187 185 57 -50 51 139 143 142 140 141 138 -55 312 313 314 311 315 310 309 305 306 307 308 180 179 176 177 -59 58 348 350 349 351 -62 61 60 248 247 250 249 -72 69 73 74 71 70 278 276 277 275 -75 77 233 230 112 111 109 108 110 -76 298 299 149 148 -81 80 79 78 189 192 191 188 190 -94 92 91 93 289 288 291 290 -95 96 99 295 292 294 293 324 325 -107 105 106 104 231 234 229 232 -115 113 116 266 267 264 260 265 263 261 262 -119 122 123 117 118 121 120 124 -125 126 65 64 63 256 257 258 255 259 -132 130 131 211 214 212 213 -134 133 361 364 365 359 362 363 358 360 -136 135 137 97 98 333 332 329 331 330 328 327 334 165 170 -144 145 147 146 237 238 236 -152 151 194 193 197 196 195 270 268 272 269 274 273 271 301 300 -157 153 158 155 156 154 215 216 318 320 -166 168 169 167 346 343 344 347 345 342 -174 175 178 281 284 280 283 279 282 -184 183 114 83 82 84 241 235 240 239 -221 219 223 217 220 218 222 228 226 225 224 227 -326 323 322 367 368 366 0 





OBJ=
2257.304
BEST_KNOWN=
0.000